# Solution for model GasLib-40
# Objective value = 1.0509158900873251e+01
loadshed[innode_1] 0
loadshed[innode_2] 0
loadshed[innode_3] 0
loadshed[innode_4] 0
loadshed[innode_5] 0
loadshed[innode_6] 0
loadshed[innode_7] 0
loadshed[innode_8] 0
loadshed[source_1] -3.0799506374682761e-01
loadshed[source_2] 0.0843660912558376
loadshed[source_3] 2.9010465365616589e-01
loadshed[sink_1] 0
loadshed[sink_2] 0
loadshed[sink_3] 0
loadshed[sink_4] 0
loadshed[sink_5] 0
loadshed[sink_6] 0
loadshed[sink_7] 0
loadshed[sink_8] 0
loadshed[sink_9] 0
loadshed[sink_10] 0
loadshed[sink_11] 0
loadshed[sink_12] 6.4259825126358727e-01
loadshed[sink_13] 0
loadshed[sink_14] 0
loadshed[sink_15] 0
loadshed[sink_16] 0
loadshed[sink_17] 0
loadshed[sink_18] 0
loadshed[sink_19] 0
loadshed[sink_20] 0
loadshed[sink_21] 0
loadshed[sink_22] 0
loadshed[sink_23] 0
loadshed[sink_24] 0
loadshed[sink_25] 0
loadshed[sink_26] 0
loadshed[sink_27] 0
loadshed[sink_28] 0
loadshed[sink_29] 0
flow[source_1,sink_3] 2.0678130295969811e+02
flow[innode_1,sink_16] 1.6354166666666970e+01
flow[innode_6,sink_13] 2.2516141700179446e+00
flow[sink_13,sink_14] -1.4102552496648723e+01
flow[sink_14,sink_10] -3.0456719163315483e+01
flow[sink_25,sink_26] 1.7159417608580213e+02
flow[sink_26,sink_9] 1.2185316263820354e+02
flow[sink_9,sink_18] 1.0549899597153687e+02
flow[sink_26,sink_4] 3.3386846780931876e+01
flow[sink_4,sink_20] -1.7192142195264353e+01
flow[sink_18,sink_6] 89.1448293048702
flow[sink_25,innode_8] -1.7407296962636173e+02
flow[sink_6,sink_7] 4.0082329304869745e+01
flow[sink_6,sink_22] 3.2708333333333641e+01
flow[sink_7,sink_24] 3.8553341099126754e+01
flow[sink_22,sink_1] 1.6354166666666970e+01
flow[sink_24,sink_21] 2.2199174432460083e+01
flow[sink_21,sink_12] 5.8450077657934170e+00
flow[sink_7,sink_5] -1.4825178460923283e+01
flow[sink_5,sink_17] -3.1179345127589841e+01
flow[sink_17,sink_4] -3.4224822309529543e+01
flow[sink_17,sink_8] -1.3308689484726983e+01
flow[sink_3,sink_23] 16.3541666666697
flow[sink_8,sink_20] -2.9662856151393612e+01
flow[sink_25,sink_20] 6.3209165013324565e+01
flow[sink_25,sink_15] -7.9336152309449190e+01
flow[sink_15,sink_29] 0
flow[sink_29,sink_28] 1.6354166666667879e+01
flow[sink_29,sink_2] 1.1204448564278253e+02
flow[sink_2,sink_15] 9.5690318976115861e+01
flow[sink_29,innode_7] -1.4475281897611706e+02
flow[innode_4,sink_19] 4.3214892381446248e+01
flow[sink_19,innode_3] 0
flow[innode_4,innode_5] 6.9012660115202266e+01
flow[sink_27,innode_5] -6.9012660115202266e+01
flow[sink_27,sink_19] 5.2658493448535637e+01
flow[sink_10,sink_11] 3.2708333333333641e+01
flow[sink_10,innode_2] -7.9519219163315825e+01
flow[sink_10,innode_3] 0
flow[innode_6,sink_25] -2.2516141700179446e+00
flow[sink_11,innode_1] 1.6354166666666970e+01
flow[sink_19,innode_2] 7.9519219163315825e+01
flow[source_3,innode_4] 1.1222755249664849e+02
flow[source_2,innode_7] 1.4475281897611706e+02
flow[sink_3,innode_8] 1.7407296962636173e+02
pressure[innode_1] 7.4907884131937990e+01
pressure[innode_2] 7.9262504597454239e+01
pressure[innode_3] 7.5059585439541536e+01
pressure[innode_4] 81.01325
pressure[innode_5] 8.0965779453323918e+01
pressure[innode_6] 73.6062004424721
pressure[innode_7] 81.01325
pressure[innode_8] 8.0322059097526648e+01
pressure[source_1] 81.01325
pressure[source_2] 81.01325
pressure[source_3] 81.01325
pressure[sink_1] 4.5928919026967527e+01
pressure[sink_2] 7.4303465889702409e+01
pressure[sink_3] 8.0322059097526648e+01
pressure[sink_4] 5.7276033283675709e+01
pressure[sink_5] 5.3645437586642906e+01
pressure[sink_6] 48.0299966373549
pressure[sink_7] 4.7479761797811719e+01
pressure[sink_8] 5.6470244857252439e+01
pressure[sink_9] 5.4227697114168251e+01
pressure[sink_10] 7.5059585439541536e+01
pressure[sink_11] 7.4907884131937990e+01
pressure[sink_12] 1.0132500000000007e+00
pressure[sink_13] 7.3593787669832480e+01
pressure[sink_14] 7.3619025388797084e+01
pressure[sink_15] 73.991058088052
pressure[sink_16] 7.3886234297120311e+01
pressure[sink_17] 5.5968073427868624e+01
pressure[sink_18] 5.0410428998832266e+01
pressure[sink_19] 7.9262504597454239e+01
pressure[sink_20] 5.8537328774218651e+01
pressure[sink_21] 3.0932236615903945e+00
pressure[sink_22] 4.6992688169322534e+01
pressure[sink_23] 8.0157341085866861e+01
pressure[sink_24] 3.3390588929369978e+00
pressure[sink_25] 73.6062004424721
pressure[sink_26] 6.1520923392420308e+01
pressure[sink_27] 8.0393101896051988e+01
pressure[sink_28] 7.6846396887288520e+01
pressure[sink_29] 77.1416791609057
interdiction[source_1,sink_3] 0
interdiction[innode_1,sink_16] 0
interdiction[innode_6,sink_13] 0
interdiction[sink_13,sink_14] 0
interdiction[sink_14,sink_10] 0
interdiction[sink_25,sink_26] 0
interdiction[sink_26,sink_9] 0
interdiction[sink_9,sink_18] 0
interdiction[sink_26,sink_4] 0
interdiction[sink_4,sink_20] 0
interdiction[sink_18,sink_6] 0
interdiction[sink_25,innode_8] 0
interdiction[sink_6,sink_7] 0
interdiction[sink_6,sink_22] 0
interdiction[sink_7,sink_24] 0
interdiction[sink_22,sink_1] 0
interdiction[sink_24,sink_21] 0
interdiction[sink_21,sink_12] 0
interdiction[sink_7,sink_5] 0
interdiction[sink_5,sink_17] 0
interdiction[sink_17,sink_4] 0
interdiction[sink_17,sink_8] 0
interdiction[sink_3,sink_23] 0
interdiction[sink_8,sink_20] 0
interdiction[sink_25,sink_20] 0
interdiction[sink_25,sink_15] 0
interdiction[sink_15,sink_29] 1
interdiction[sink_29,sink_28] 0
interdiction[sink_29,sink_2] 0
interdiction[sink_2,sink_15] 0
interdiction[sink_29,innode_7] 0
interdiction[innode_4,sink_19] 0
interdiction[sink_19,innode_3] 1
interdiction[innode_4,innode_5] 0
interdiction[sink_27,innode_5] 0
interdiction[sink_27,sink_19] 0
interdiction[sink_10,sink_11] 0
interdiction[sink_10,innode_2] 0
interdiction[sink_10,innode_3] 0
interdiction[innode_6,sink_25] 0
interdiction[sink_11,innode_1] 0
interdiction[sink_19,innode_2] 0
interdiction[source_3,innode_4] 0
interdiction[source_2,innode_7] 0
interdiction[sink_3,innode_8] 0
WCcheckFlow[source_1,sink_3] 39
WCcheckFlow[innode_1,sink_16] 1
WCcheckFlow[innode_6,sink_13] 13
WCcheckFlow[sink_13,sink_14] 12
WCcheckFlow[sink_14,sink_10] 11
WCcheckFlow[sink_25,sink_26] 15
WCcheckFlow[sink_26,sink_9] 12
WCcheckFlow[sink_9,sink_18] 11
WCcheckFlow[sink_26,sink_4] 2
WCcheckFlow[sink_4,sink_20] 1
WCcheckFlow[sink_18,sink_6] 10
WCcheckFlow[sink_25,innode_8] -36
WCcheckFlow[sink_6,sink_7] 7
WCcheckFlow[sink_6,sink_22] 2
WCcheckFlow[sink_7,sink_24] 3
WCcheckFlow[sink_22,sink_1] 1
WCcheckFlow[sink_24,sink_21] 2
WCcheckFlow[sink_21,sink_12] 1
WCcheckFlow[sink_7,sink_5] 3
WCcheckFlow[sink_5,sink_17] 2
WCcheckFlow[sink_17,sink_4] 0
WCcheckFlow[sink_17,sink_8] 1
WCcheckFlow[sink_3,sink_23] 1
WCcheckFlow[sink_8,sink_20] 0
WCcheckFlow[sink_25,sink_20] 0
WCcheckFlow[sink_25,sink_15] 6
WCcheckFlow[sink_15,sink_29] 0
WCcheckFlow[sink_29,sink_28] 1
WCcheckFlow[sink_29,sink_2] -4
WCcheckFlow[sink_2,sink_15] -5
WCcheckFlow[sink_29,innode_7] 2
WCcheckFlow[innode_4,sink_19] -4
WCcheckFlow[sink_19,innode_3] 0
WCcheckFlow[innode_4,innode_5] 2
WCcheckFlow[sink_27,innode_5] -1
WCcheckFlow[sink_27,sink_19] 0
WCcheckFlow[sink_10,sink_11] 3
WCcheckFlow[sink_10,innode_2] 6
WCcheckFlow[sink_10,innode_3] 1
WCcheckFlow[innode_6,sink_25] -14
WCcheckFlow[sink_11,innode_1] 2
WCcheckFlow[sink_19,innode_2] -5
WCcheckFlow[source_3,innode_4] -1
WCcheckFlow[source_2,innode_7] -1
WCcheckFlow[sink_3,innode_8] 37
